D:\EncodingJSSP\abz9\L666>D:\minisat.exe abz9_L666_encoded.cnf abz9_L666_result.txt
============================[ Problem Statistics ]=============================
|                                                                             |
|  Number of variables:        406180                                         |
|  Number of clauses:         2686822                                         |
|  Parse time:                   4.56 s                                       |
|                                                                             |
============================[ Search Statistics ]==============================
| Conflicts |          ORIGINAL         |          LEARNT          | Progress |
|           |    Vars  Clauses Literals |    Limit  Clauses Lit/Cl |          |
===============================================================================
|       100 |  181474  1997708  5124983 |   732492      100     23 | 55.322 % |
|       250 |  181474  1997708  5124983 |   805742      250     21 | 55.322 % |
|       475 |  181474  1997708  5124983 |   886316      475     19 | 55.322 % |
|       812 |  181474  1997708  5124983 |   974948      812     16 | 55.322 % |
|      1318 |  181474  1997708  5124983 |  1072442     1318     15 | 55.322 % |
|      2077 |  181474  1997708  5124983 |  1179687     2077     14 | 55.322 % |
|      3216 |  181474  1997708  5124983 |  1297655     3216     14 | 55.322 % |
|      4924 |  181474  1997708  5124983 |  1427421     4924     14 | 55.322 % |
|      7486 |  181474  1997708  5124983 |  1570163     7486     16 | 55.322 % |
|     11330 |  181474  1997708  5124983 |  1727180    11330     16 | 55.322 % |
|     17096 |  181474  1997708  5124983 |  1899898    17096     16 | 55.322 % |
|     25745 |  181474  1997708  5124983 |  2089887    25745     16 | 55.322 % |
|     38719 |  181474  1997708  5124983 |  2298876    38719     17 | 55.322 % |
|     58180 |  181474  1997708  5124983 |  2528764    58180     18 | 55.322 % |
|     87372 |  181474  1997708  5124983 |  2781640    87372     19 | 55.322 % |
|    131161 |  181474  1997708  5124983 |  3059804   131161     19 | 55.322 % |
|    196845 |  181474  1997708  5124983 |  3365785   196845     20 | 55.322 % |
|    295371 |  181474  1997708  5124983 |  3702363   295371     21 | 55.322 % |
|    443160 |  181474  1997708  5124983 |  4072600   443160     22 | 55.322 % |
|    664843 |  181474  1997708  5124983 |  4479860   664843     24 | 55.322 % |
|    997368 |  181474  1997708  5124983 |  4927846   997368     27 | 55.322 % |
|   1496156 |  181474  1997708  5124983 |  5420630  1496156     28 | 55.322 % |
===============================================================================
restarts              : 4092
conflicts             : 2094380        (98 /sec)
decisions             : 2843664        (0.00 % random) (134 /sec)
propagations          : 20242231731    (951913 /sec)
conflict literals     : 66544065       (43.65 % deleted)
CPU time              : 21264.8 s

UNSATISFIABLE